100
32
32
12
8
32
12
5
15
13
8
11
24
27
11
1
5
1
2
12
1
1
10
23
10
17
1
3
1
4
4
3
2
17
4
1
1
1
17
8
3
2
20
2
2
1
16
1
1
3
1
2
2
5
1
2
4
2
2
2
2
1
18
1
4
1
5
3
2
1
17
4
2
17
2
2
1
4
17
1
9
2
19
4
3
1
2
4
2
1
3
1
3
3
2
22
1
2
3
1
1
2